NAME: tsp_255
COMMENT: Random TSP instance
TYPE: TSP
DIMENSION: 50
EDGE_WEIGHT_TYPE: EUC_2D
NODE_COORD_SECTION
1 589 347
2 284 239
3 71 498
4 930 946
5 661 140
6 491 53
7 31 972
8 851 675
9 730 665
10 94 778
11 543 680
12 323 213
13 353 685
14 999 192
15 211 269
16 634 355
17 909 594
18 275 955
19 727 668
20 478 453
21 361 682
22 61 376
23 107 957
24 417 571
25 422 426
26 320 952
27 190 935
28 796 728
29 438 516
30 96 221
31 546 949
32 651 675
33 984 236
34 756 24
35 893 735
36 248 553
37 874 660
38 816 774
39 624 137
40 130 635
41 561 618
42 414 582
43 883 571
44 300 278
45 366 643
46 190 270
47 145 945
48 391 357
49 949 657
50 507 138
